************************************************************************
file with basedata            : mm2_.bas
initial value random generator: 365117140
************************************************************************
projects                      :  1
jobs (incl. supersource/sink ):  12
horizon                       :  79
RESOURCES
  - renewable                 :  2   R
  - nonrenewable              :  2   N
  - doubly constrained        :  0   D
************************************************************************
PROJECT INFORMATION:
pronr.  #jobs rel.date duedate tardcost  MPM-Time
    1     10      0       22        2       22
************************************************************************
PRECEDENCE RELATIONS:
jobnr.    #modes  #successors   successors
   0        1          3           1   2   3
   1        3          3           4   6   8
   2        3          3           4   5   8
   3        3          1           9
   4        3          1          10
   5        3          1           7
   6        3          2           7  10
   7        3          1           9
   8        3          1          11
   9        3          1          11
  10        3          1          11
  11        1          0        
************************************************************************
REQUESTS/DURATIONS:
jobnr. mode duration  R 1  R 2  R 3  R 4  E(W 1)  E(W 2)  E(W 3)
------------------------------------------------------------------------
  0      1     0       0    0    0    0     0       0       0
  1      1     9       0    5    0    4    45       0      36
  2      1     2       0    3    7    0     6      14       0
  3      1     7       6    0    0    8    42       0      56
  4      1     6       7    0    9    0    42      54       0
  5      1     1       5    0    0    2     5       0       2
  6      1     4      10    0   10    0    40      40       0
  7      1     4       0    7    0    8    28       0      32
  8      1     3       4    0    8    0    12      24       0
  9      1     4       5    0    0    6    20       0      24
 10      1     7       7    0    0    2    49       0      14
 11      1     0       0    0    0    0     0       0       0
************************************************************************
RESOURCEAVAILABILITIES:
  R 1  R 2  R 3
   10   46   22
************************************************************************
RESOURCE LIMITS:
jobnr.  l(R 1)  u(R 1)  l(R 2)  u(R 2)  l(R 3)  u(R 3)
------------------------------------------------------------------------
  0        0       0       0       0       0       0
  1        3       5       0       0       2       4
  2        2       3       4       7       0       0
  3        3       6       0       0       4       8
  4        4       7       5       9       0       0
  5        3       5       0       0       1       2
  6        5      10       5      10       0       0
  7        4       7       0       0       4       8
  8        2       4       4       8       0       0
  9        3       5       0       0       3       6
 10        4       7       0       0       1       2
 11        0       0       0       0       0       0
************************************************************************
SCENARIOS:
------------------------------------------------------------------------
RESOURCE k = 1
s = 1: (0, 79, 6, 50, 45, 5, 34, 19, 8, 16, 58, 0)
s = 2: (0, 38, 8, 38, 46, 4, 46, 34, 15, 23, 56, 0)
s = 3: (0, 61, 5, 27, 59, 6, 44, 39, 11, 29, 70, 0)
s = 4: (0, 66, 8, 23, 29, 3, 48, 43, 13, 24, 68, 0)
s = 5: (0, 49, 5, 31, 35, 5, 36, 26, 14, 23, 59, 0)
s = 6: (0, 64, 4, 52, 35, 7, 29, 27, 15, 27, 37, 0)
s = 7: (0, 71, 5, 47, 39, 3, 25, 33, 13, 17, 74, 0)
s = 8: (0, 53, 5, 53, 29, 5, 26, 26, 10, 22, 45, 0)
s = 9: (0, 55, 4, 58, 35, 7, 29, 32, 8, 14, 40, 0)
s = 10: (0, 43, 5, 29, 41, 10, 45, 27, 13, 20, 57, 0)
s = 11: (0, 53, 7, 55, 24, 5, 31, 20, 12, 14, 44, 0)
s = 12: (0, 33, 7, 38, 29, 5, 41, 21, 11, 29, 66, 0)
s = 13: (0, 46, 6, 31, 58, 5, 27, 37, 8, 18, 51, 0)
s = 14: (0, 33, 9, 45, 28, 5, 45, 39, 14, 18, 49, 0)
s = 15: (0, 46, 5, 56, 26, 7, 34, 29, 11, 17, 47, 0)
s = 16: (0, 41, 6, 39, 46, 6, 29, 26, 9, 22, 55, 0)
s = 17: (0, 38, 10, 52, 66, 4, 49, 41, 15, 15, 38, 0)
s = 18: (0, 35, 6, 44, 50, 6, 55, 35, 11, 22, 26, 0)
s = 19: (0, 35, 9, 38, 33, 6, 30, 17, 13, 33, 47, 0)
s = 20: (0, 47, 6, 34, 30, 6, 28, 26, 16, 38, 26, 0)
s = 21: (0, 42, 5, 54, 37, 4, 45, 21, 18, 19, 48, 0)
s = 22: (0, 42, 5, 37, 54, 7, 43, 25, 17, 20, 65, 0)
s = 23: (0, 40, 5, 69, 42, 6, 35, 20, 15, 22, 73, 0)
s = 24: (0, 72, 8, 40, 23, 7, 58, 33, 18, 13, 35, 0)
s = 25: (0, 70, 5, 32, 64, 4, 35, 27, 9, 21, 37, 0)
s = 26: (0, 41, 5, 53, 46, 5, 26, 31, 10, 15, 42, 0)
s = 27: (0, 27, 8, 34, 37, 4, 27, 32, 15, 18, 44, 0)
s = 28: (0, 39, 5, 41, 34, 5, 45, 23, 13, 26, 33, 0)
s = 29: (0, 59, 7, 46, 38, 4, 35, 36, 17, 24, 55, 0)
s = 30: (0, 42, 5, 31, 38, 7, 39, 39, 8, 13, 40, 0)
s = 31: (0, 39, 8, 36, 38, 4, 38, 27, 18, 24, 30, 0)
s = 32: (0, 42, 9, 41, 63, 5, 25, 23, 10, 34, 59, 0)
s = 33: (0, 52, 7, 37, 33, 6, 32, 32, 11, 24, 38, 0)
s = 34: (0, 57, 5, 48, 43, 4, 36, 25, 12, 19, 84, 0)
s = 35: (0, 52, 7, 43, 35, 5, 44, 32, 10, 17, 32, 0)
s = 36: (0, 30, 6, 53, 46, 3, 42, 22, 12, 20, 28, 0)
s = 37: (0, 34, 6, 33, 34, 6, 28, 26, 10, 36, 62, 0)
s = 38: (0, 70, 7, 58, 25, 3, 33, 32, 15, 20, 40, 0)
s = 39: (0, 36, 5, 42, 59, 5, 23, 32, 12, 22, 39, 0)
s = 40: (0, 60, 6, 56, 51, 3, 42, 21, 13, 13, 59, 0)
s = 41: (0, 45, 7, 40, 33, 6, 47, 39, 13, 24, 32, 0)
s = 42: (0, 36, 5, 31, 41, 7, 31, 27, 9, 17, 37, 0)
s = 43: (0, 34, 9, 51, 24, 5, 52, 31, 16, 14, 56, 0)
s = 44: (0, 35, 5, 32, 28, 5, 37, 23, 16, 25, 56, 0)
s = 45: (0, 60, 5, 45, 33, 5, 37, 31, 9, 13, 49, 0)
s = 46: (0, 30, 7, 34, 50, 5, 35, 22, 12, 21, 39, 0)
s = 47: (0, 83, 4, 60, 54, 5, 27, 17, 13, 20, 66, 0)
s = 48: (0, 31, 6, 42, 67, 7, 47, 23, 11, 15, 39, 0)
s = 49: (0, 32, 8, 40, 30, 8, 26, 25, 12, 22, 88, 0)
s = 50: (0, 41, 5, 42, 36, 7, 30, 26, 16, 28, 41, 0)
s = 51: (0, 33, 7, 32, 24, 5, 24, 17, 14, 26, 43, 0)
s = 52: (0, 32, 6, 65, 47, 5, 48, 23, 11, 21, 77, 0)
s = 53: (0, 42, 4, 34, 39, 7, 33, 29, 14, 34, 26, 0)
s = 54: (0, 32, 5, 40, 63, 4, 54, 32, 10, 20, 35, 0)
s = 55: (0, 41, 5, 31, 43, 5, 33, 21, 11, 17, 45, 0)
s = 56: (0, 36, 6, 31, 42, 5, 52, 20, 7, 22, 37, 0)
s = 57: (0, 50, 7, 52, 38, 3, 28, 17, 14, 25, 32, 0)
s = 58: (0, 74, 7, 42, 37, 4, 26, 21, 15, 19, 37, 0)
s = 59: (0, 50, 4, 38, 66, 6, 42, 28, 12, 28, 48, 0)
s = 60: (0, 44, 5, 60, 28, 3, 23, 30, 10, 19, 60, 0)
s = 61: (0, 33, 7, 25, 43, 5, 24, 27, 14, 22, 68, 0)
s = 62: (0, 42, 5, 37, 43, 5, 54, 18, 16, 16, 55, 0)
s = 63: (0, 58, 5, 28, 33, 4, 36, 20, 8, 20, 39, 0)
s = 64: (0, 39, 6, 34, 45, 5, 49, 26, 9, 20, 37, 0)
s = 65: (0, 46, 10, 43, 58, 6, 38, 29, 12, 23, 49, 0)
s = 66: (0, 42, 5, 60, 30, 5, 36, 29, 18, 20, 32, 0)
s = 67: (0, 38, 4, 63, 31, 5, 21, 32, 13, 26, 40, 0)
s = 68: (0, 52, 6, 47, 43, 6, 30, 22, 17, 15, 47, 0)
s = 69: (0, 40, 8, 35, 32, 7, 51, 24, 9, 14, 68, 0)
s = 70: (0, 37, 4, 30, 27, 5, 40, 18, 13, 18, 40, 0)
s = 71: (0, 28, 11, 37, 37, 4, 51, 38, 14, 27, 44, 0)
s = 72: (0, 29, 8, 23, 37, 5, 23, 30, 16, 20, 29, 0)
s = 73: (0, 34, 6, 35, 37, 7, 38, 33, 16, 14, 58, 0)
s = 74: (0, 48, 6, 47, 44, 4, 27, 38, 13, 20, 75, 0)
s = 75: (0, 40, 7, 66, 44, 5, 44, 37, 15, 12, 75, 0)
s = 76: (0, 34, 11, 36, 41, 7, 40, 35, 10, 24, 32, 0)
s = 77: (0, 39, 7, 27, 57, 6, 35, 32, 12, 24, 65, 0)
s = 78: (0, 44, 7, 53, 27, 6, 27, 28, 10, 18, 41, 0)
s = 79: (0, 45, 5, 39, 30, 6, 66, 22, 9, 32, 56, 0)
s = 80: (0, 67, 4, 56, 72, 4, 58, 35, 11, 17, 66, 0)
s = 81: (0, 57, 10, 53, 40, 5, 28, 50, 12, 26, 54, 0)
s = 82: (0, 64, 7, 37, 37, 4, 58, 22, 8, 20, 31, 0)
s = 83: (0, 51, 8, 40, 47, 6, 25, 32, 10, 21, 28, 0)
s = 84: (0, 77, 8, 37, 52, 3, 55, 16, 7, 12, 52, 0)
s = 85: (0, 45, 9, 25, 32, 6, 38, 19, 15, 24, 39, 0)
s = 86: (0, 54, 7, 28, 54, 8, 24, 26, 11, 15, 46, 0)
s = 87: (0, 73, 5, 53, 47, 6, 40, 32, 9, 13, 54, 0)
s = 88: (0, 43, 4, 46, 33, 6, 26, 22, 18, 23, 63, 0)
s = 89: (0, 46, 7, 32, 33, 6, 28, 25, 12, 20, 54, 0)
s = 90: (0, 31, 7, 31, 59, 3, 37, 27, 14, 20, 75, 0)
s = 91: (0, 42, 5, 41, 27, 7, 43, 30, 12, 13, 40, 0)
s = 92: (0, 78, 10, 38, 65, 4, 45, 20, 8, 15, 62, 0)
s = 93: (0, 32, 10, 54, 30, 5, 54, 20, 12, 17, 44, 0)
s = 94: (0, 33, 7, 39, 50, 8, 61, 25, 13, 26, 45, 0)
s = 95: (0, 62, 8, 29, 28, 3, 43, 31, 11, 18, 35, 0)
s = 96: (0, 41, 5, 52, 37, 4, 51, 35, 12, 11, 27, 0)
s = 97: (0, 32, 6, 49, 47, 6, 30, 16, 13, 17, 28, 0)
s = 98: (0, 55, 8, 54, 51, 4, 31, 32, 17, 20, 34, 0)
s = 99: (0, 43, 5, 36, 26, 7, 35, 31, 16, 19, 47, 0)
s = 100: (0, 37, 6, 41, 25, 4, 35, 28, 11, 21, 47, 0)
s = 101: (0, 52, 8, 36, 56, 5, 65, 48, 14, 24, 73, 0)
s = 102: (0, 69, 7, 38, 44, 7, 50, 31, 17, 20, 46, 0)
s = 103: (0, 60, 5, 35, 26, 4, 23, 50, 13, 31, 62, 0)
s = 104: (0, 60, 5, 47, 27, 5, 53, 35, 10, 14, 73, 0)
s = 105: (0, 46, 6, 47, 34, 5, 36, 41, 11, 15, 43, 0)
s = 106: (0, 45, 6, 28, 43, 9, 38, 16, 17, 22, 66, 0)
s = 107: (0, 31, 6, 33, 46, 4, 59, 44, 8, 21, 58, 0)
s = 108: (0, 46, 4, 44, 50, 4, 42, 22, 10, 20, 65, 0)
s = 109: (0, 55, 9, 28, 48, 9, 24, 39, 15, 18, 44, 0)
s = 110: (0, 53, 8, 53, 43, 4, 24, 28, 13, 23, 53, 0)
s = 111: (0, 38, 7, 54, 50, 7, 56, 23, 14, 26, 42, 0)
s = 112: (0, 33, 8, 46, 29, 5, 63, 25, 8, 17, 46, 0)
s = 113: (0, 50, 6, 39, 42, 6, 33, 22, 11, 27, 35, 0)
s = 114: (0, 26, 9, 44, 48, 5, 32, 54, 13, 20, 27, 0)
s = 115: (0, 51, 5, 29, 31, 8, 27, 18, 15, 16, 40, 0)
s = 116: (0, 60, 9, 57, 36, 6, 35, 33, 17, 20, 86, 0)
s = 117: (0, 50, 5, 31, 52, 6, 44, 28, 8, 22, 53, 0)
s = 118: (0, 42, 6, 30, 51, 5, 39, 31, 10, 21, 35, 0)
s = 119: (0, 40, 6, 29, 69, 6, 36, 29, 15, 28, 43, 0)
s = 120: (0, 32, 6, 61, 23, 6, 42, 31, 12, 22, 54, 0)
s = 121: (0, 50, 9, 43, 50, 4, 45, 17, 11, 13, 81, 0)
s = 122: (0, 28, 4, 38, 28, 6, 40, 32, 14, 26, 30, 0)
s = 123: (0, 56, 5, 38, 29, 5, 52, 28, 14, 13, 33, 0)
s = 124: (0, 74, 8, 40, 25, 7, 65, 33, 12, 24, 52, 0)
s = 125: (0, 64, 4, 32, 47, 5, 33, 22, 10, 26, 44, 0)
s = 126: (0, 49, 5, 50, 55, 7, 51, 29, 15, 18, 43, 0)
s = 127: (0, 80, 7, 43, 34, 8, 26, 23, 10, 33, 44, 0)
s = 128: (0, 52, 5, 37, 75, 5, 63, 29, 17, 20, 53, 0)
s = 129: (0, 37, 12, 29, 54, 6, 33, 30, 16, 19, 80, 0)
s = 130: (0, 26, 6, 62, 36, 4, 46, 22, 12, 18, 33, 0)
s = 131: (0, 62, 6, 25, 32, 4, 37, 24, 9, 16, 33, 0)
s = 132: (0, 47, 6, 41, 36, 5, 39, 40, 9, 16, 53, 0)
s = 133: (0, 55, 5, 46, 36, 8, 36, 44, 12, 13, 55, 0)
s = 134: (0, 33, 4, 47, 55, 6, 27, 33, 12, 18, 79, 0)
s = 135: (0, 38, 5, 55, 32, 4, 27, 37, 8, 16, 54, 0)
s = 136: (0, 40, 8, 28, 34, 8, 55, 20, 19, 28, 48, 0)
s = 137: (0, 34, 8, 47, 65, 5, 34, 28, 10, 16, 67, 0)
s = 138: (0, 41, 5, 36, 38, 6, 43, 33, 11, 15, 60, 0)
s = 139: (0, 41, 4, 58, 50, 5, 38, 35, 8, 31, 34, 0)
s = 140: (0, 29, 6, 44, 54, 5, 24, 17, 13, 25, 30, 0)
s = 141: (0, 56, 5, 39, 31, 7, 25, 26, 18, 25, 45, 0)
s = 142: (0, 32, 5, 35, 34, 8, 45, 36, 15, 22, 42, 0)
s = 143: (0, 48, 6, 41, 51, 5, 58, 27, 10, 21, 33, 0)
s = 144: (0, 59, 9, 55, 33, 5, 31, 19, 14, 20, 53, 0)
s = 145: (0, 73, 7, 38, 29, 5, 27, 28, 10, 28, 48, 0)
s = 146: (0, 45, 8, 27, 37, 4, 30, 22, 13, 14, 58, 0)
s = 147: (0, 25, 6, 30, 47, 8, 32, 35, 15, 13, 64, 0)
s = 148: (0, 41, 7, 32, 50, 7, 62, 16, 9, 22, 54, 0)
s = 149: (0, 53, 7, 33, 32, 5, 46, 32, 13, 27, 52, 0)
s = 150: (0, 29, 7, 43, 36, 7, 54, 20, 11, 25, 31, 0)
s = 151: (0, 43, 8, 38, 33, 5, 48, 22, 9, 15, 44, 0)
s = 152: (0, 49, 6, 31, 26, 5, 56, 19, 9, 17, 42, 0)
s = 153: (0, 57, 5, 47, 55, 4, 42, 20, 15, 21, 39, 0)
s = 154: (0, 38, 5, 46, 54, 8, 49, 35, 12, 15, 52, 0)
s = 155: (0, 44, 5, 49, 38, 6, 40, 46, 7, 26, 65, 0)
s = 156: (0, 33, 7, 41, 61, 7, 48, 37, 15, 26, 52, 0)
s = 157: (0, 33, 4, 43, 39, 5, 28, 34, 10, 21, 31, 0)
s = 158: (0, 43, 7, 44, 43, 3, 41, 29, 15, 13, 53, 0)
s = 159: (0, 43, 4, 56, 40, 4, 54, 39, 11, 12, 57, 0)
s = 160: (0, 40, 6, 43, 34, 4, 45, 25, 10, 16, 27, 0)
s = 161: (0, 36, 7, 31, 36, 4, 48, 19, 20, 17, 35, 0)
s = 162: (0, 33, 6, 31, 31, 7, 66, 33, 8, 21, 43, 0)
s = 163: (0, 41, 6, 44, 25, 5, 40, 26, 14, 13, 32, 0)
s = 164: (0, 41, 7, 53, 34, 5, 52, 18, 10, 22, 48, 0)
s = 165: (0, 38, 6, 43, 43, 4, 33, 23, 15, 19, 50, 0)
s = 166: (0, 31, 8, 31, 35, 5, 28, 33, 14, 20, 64, 0)
s = 167: (0, 35, 5, 45, 32, 6, 43, 30, 13, 23, 63, 0)
s = 168: (0, 52, 5, 30, 43, 5, 45, 28, 14, 23, 51, 0)
s = 169: (0, 42, 7, 48, 44, 7, 40, 20, 11, 17, 36, 0)
s = 170: (0, 44, 5, 41, 52, 3, 46, 46, 12, 23, 58, 0)
s = 171: (0, 54, 4, 37, 58, 8, 38, 28, 11, 25, 33, 0)
s = 172: (0, 54, 7, 35, 31, 9, 37, 24, 12, 19, 61, 0)
s = 173: (0, 52, 6, 31, 45, 8, 46, 21, 10, 17, 56, 0)
s = 174: (0, 51, 5, 34, 44, 5, 48, 29, 18, 19, 54, 0)
s = 175: (0, 41, 5, 60, 65, 6, 25, 27, 8, 22, 42, 0)
s = 176: (0, 54, 7, 33, 31, 6, 42, 35, 12, 19, 34, 0)
s = 177: (0, 49, 8, 28, 27, 4, 40, 19, 8, 13, 32, 0)
s = 178: (0, 43, 4, 38, 34, 7, 64, 42, 8, 17, 39, 0)
s = 179: (0, 40, 5, 40, 49, 6, 42, 31, 10, 21, 52, 0)
s = 180: (0, 38, 6, 47, 45, 7, 35, 19, 10, 34, 36, 0)
s = 181: (0, 41, 4, 60, 34, 8, 39, 18, 12, 20, 49, 0)
s = 182: (0, 49, 4, 34, 42, 6, 47, 22, 8, 26, 45, 0)
s = 183: (0, 32, 7, 52, 54, 5, 58, 34, 7, 13, 31, 0)
s = 184: (0, 64, 5, 36, 75, 8, 34, 22, 12, 24, 54, 0)
s = 185: (0, 43, 4, 43, 47, 5, 40, 24, 10, 14, 56, 0)
s = 186: (0, 52, 4, 28, 39, 5, 33, 33, 10, 25, 57, 0)
s = 187: (0, 43, 4, 33, 61, 6, 36, 33, 10, 28, 49, 0)
s = 188: (0, 27, 4, 34, 60, 8, 31, 18, 9, 31, 73, 0)
s = 189: (0, 42, 6, 30, 39, 5, 37, 41, 13, 18, 48, 0)
s = 190: (0, 69, 5, 52, 41, 6, 47, 22, 18, 19, 32, 0)
s = 191: (0, 59, 5, 45, 71, 6, 66, 35, 10, 17, 55, 0)
s = 192: (0, 48, 9, 44, 60, 5, 43, 46, 12, 26, 44, 0)
s = 193: (0, 49, 6, 31, 41, 7, 51, 20, 9, 34, 61, 0)
s = 194: (0, 52, 7, 42, 42, 5, 37, 50, 13, 12, 59, 0)
s = 195: (0, 38, 5, 41, 38, 4, 27, 32, 13, 29, 30, 0)
s = 196: (0, 62, 8, 51, 36, 4, 42, 34, 21, 26, 57, 0)
s = 197: (0, 39, 7, 62, 41, 3, 57, 18, 13, 21, 69, 0)
s = 198: (0, 38, 5, 34, 32, 4, 33, 31, 15, 23, 64, 0)
s = 199: (0, 28, 10, 52, 30, 8, 31, 24, 14, 18, 54, 0)
s = 200: (0, 69, 5, 35, 27, 5, 36, 30, 12, 34, 70, 0)
------------------------------------------------------------------------
RESOURCE k = 2
s = 1: (0, 0, 12, 0, 58, 0, 34, 0, 16, 0, 0, 0)
s = 2: (0, 0, 18, 0, 60, 0, 46, 0, 30, 0, 0, 0)
s = 3: (0, 0, 12, 0, 75, 0, 44, 0, 22, 0, 0, 0)
s = 4: (0, 0, 19, 0, 37, 0, 48, 0, 26, 0, 0, 0)
s = 5: (0, 0, 11, 0, 45, 0, 36, 0, 27, 0, 0, 0)
s = 6: (0, 0, 9, 0, 44, 0, 29, 0, 30, 0, 0, 0)
s = 7: (0, 0, 11, 0, 50, 0, 25, 0, 26, 0, 0, 0)
s = 8: (0, 0, 10, 0, 38, 0, 26, 0, 20, 0, 0, 0)
s = 9: (0, 0, 9, 0, 45, 0, 29, 0, 15, 0, 0, 0)
s = 10: (0, 0, 11, 0, 52, 0, 45, 0, 25, 0, 0, 0)
s = 11: (0, 0, 16, 0, 30, 0, 31, 0, 24, 0, 0, 0)
s = 12: (0, 0, 15, 0, 37, 0, 41, 0, 21, 0, 0, 0)
s = 13: (0, 0, 14, 0, 74, 0, 27, 0, 16, 0, 0, 0)
s = 14: (0, 0, 21, 0, 36, 0, 45, 0, 28, 0, 0, 0)
s = 15: (0, 0, 12, 0, 33, 0, 34, 0, 21, 0, 0, 0)
s = 16: (0, 0, 13, 0, 59, 0, 29, 0, 18, 0, 0, 0)
s = 17: (0, 0, 23, 0, 84, 0, 49, 0, 30, 0, 0, 0)
s = 18: (0, 0, 14, 0, 64, 0, 55, 0, 21, 0, 0, 0)
s = 19: (0, 0, 20, 0, 42, 0, 30, 0, 25, 0, 0, 0)
s = 20: (0, 0, 13, 0, 38, 0, 28, 0, 31, 0, 0, 0)
s = 21: (0, 0, 10, 0, 48, 0, 45, 0, 36, 0, 0, 0)
s = 22: (0, 0, 11, 0, 69, 0, 43, 0, 33, 0, 0, 0)
s = 23: (0, 0, 11, 0, 54, 0, 35, 0, 30, 0, 0, 0)
s = 24: (0, 0, 19, 0, 29, 0, 58, 0, 35, 0, 0, 0)
s = 25: (0, 0, 11, 0, 82, 0, 35, 0, 18, 0, 0, 0)
s = 26: (0, 0, 11, 0, 59, 0, 26, 0, 19, 0, 0, 0)
s = 27: (0, 0, 19, 0, 47, 0, 27, 0, 29, 0, 0, 0)
s = 28: (0, 0, 11, 0, 43, 0, 45, 0, 25, 0, 0, 0)
s = 29: (0, 0, 15, 0, 49, 0, 35, 0, 33, 0, 0, 0)
s = 30: (0, 0, 12, 0, 48, 0, 39, 0, 16, 0, 0, 0)
s = 31: (0, 0, 18, 0, 48, 0, 38, 0, 36, 0, 0, 0)
s = 32: (0, 0, 20, 0, 81, 0, 25, 0, 20, 0, 0, 0)
s = 33: (0, 0, 15, 0, 42, 0, 32, 0, 21, 0, 0, 0)
s = 34: (0, 0, 11, 0, 55, 0, 36, 0, 24, 0, 0, 0)
s = 35: (0, 0, 16, 0, 45, 0, 44, 0, 19, 0, 0, 0)
s = 36: (0, 0, 13, 0, 59, 0, 42, 0, 24, 0, 0, 0)
s = 37: (0, 0, 13, 0, 44, 0, 28, 0, 20, 0, 0, 0)
s = 38: (0, 0, 15, 0, 32, 0, 33, 0, 29, 0, 0, 0)
s = 39: (0, 0, 10, 0, 76, 0, 23, 0, 24, 0, 0, 0)
s = 40: (0, 0, 12, 0, 65, 0, 42, 0, 25, 0, 0, 0)
s = 41: (0, 0, 15, 0, 42, 0, 47, 0, 26, 0, 0, 0)
s = 42: (0, 0, 11, 0, 52, 0, 31, 0, 18, 0, 0, 0)
s = 43: (0, 0, 21, 0, 31, 0, 52, 0, 31, 0, 0, 0)
s = 44: (0, 0, 11, 0, 36, 0, 37, 0, 31, 0, 0, 0)
s = 45: (0, 0, 11, 0, 42, 0, 37, 0, 18, 0, 0, 0)
s = 46: (0, 0, 17, 0, 64, 0, 35, 0, 24, 0, 0, 0)
s = 47: (0, 0, 9, 0, 70, 0, 27, 0, 26, 0, 0, 0)
s = 48: (0, 0, 12, 0, 87, 0, 47, 0, 21, 0, 0, 0)
s = 49: (0, 0, 18, 0, 39, 0, 26, 0, 23, 0, 0, 0)
s = 50: (0, 0, 11, 0, 46, 0, 30, 0, 31, 0, 0, 0)
s = 51: (0, 0, 17, 0, 31, 0, 24, 0, 28, 0, 0, 0)
s = 52: (0, 0, 13, 0, 60, 0, 48, 0, 21, 0, 0, 0)
s = 53: (0, 0, 9, 0, 51, 0, 33, 0, 27, 0, 0, 0)
s = 54: (0, 0, 10, 0, 81, 0, 54, 0, 19, 0, 0, 0)
s = 55: (0, 0, 10, 0, 55, 0, 33, 0, 21, 0, 0, 0)
s = 56: (0, 0, 14, 0, 54, 0, 52, 0, 13, 0, 0, 0)
s = 57: (0, 0, 16, 0, 49, 0, 28, 0, 27, 0, 0, 0)
s = 58: (0, 0, 15, 0, 47, 0, 26, 0, 29, 0, 0, 0)
s = 59: (0, 0, 10, 0, 85, 0, 42, 0, 24, 0, 0, 0)
s = 60: (0, 0, 11, 0, 36, 0, 23, 0, 19, 0, 0, 0)
s = 61: (0, 0, 15, 0, 55, 0, 24, 0, 28, 0, 0, 0)
s = 62: (0, 0, 11, 0, 55, 0, 54, 0, 31, 0, 0, 0)
s = 63: (0, 0, 11, 0, 42, 0, 36, 0, 16, 0, 0, 0)
s = 64: (0, 0, 14, 0, 57, 0, 49, 0, 18, 0, 0, 0)
s = 65: (0, 0, 22, 0, 74, 0, 38, 0, 23, 0, 0, 0)
s = 66: (0, 0, 12, 0, 38, 0, 36, 0, 35, 0, 0, 0)
s = 67: (0, 0, 9, 0, 40, 0, 21, 0, 26, 0, 0, 0)
s = 68: (0, 0, 13, 0, 55, 0, 30, 0, 33, 0, 0, 0)
s = 69: (0, 0, 17, 0, 41, 0, 51, 0, 17, 0, 0, 0)
s = 70: (0, 0, 9, 0, 35, 0, 40, 0, 25, 0, 0, 0)
s = 71: (0, 0, 24, 0, 48, 0, 51, 0, 28, 0, 0, 0)
s = 72: (0, 0, 18, 0, 48, 0, 23, 0, 32, 0, 0, 0)
s = 73: (0, 0, 14, 0, 48, 0, 38, 0, 32, 0, 0, 0)
s = 74: (0, 0, 13, 0, 57, 0, 27, 0, 26, 0, 0, 0)
s = 75: (0, 0, 15, 0, 57, 0, 44, 0, 30, 0, 0, 0)
s = 76: (0, 0, 24, 0, 53, 0, 40, 0, 19, 0, 0, 0)
s = 77: (0, 0, 16, 0, 74, 0, 35, 0, 24, 0, 0, 0)
s = 78: (0, 0, 16, 0, 35, 0, 27, 0, 19, 0, 0, 0)
s = 79: (0, 0, 11, 0, 39, 0, 66, 0, 18, 0, 0, 0)
s = 80: (0, 0, 8, 0, 92, 0, 58, 0, 21, 0, 0, 0)
s = 81: (0, 0, 22, 0, 51, 0, 28, 0, 23, 0, 0, 0)
s = 82: (0, 0, 15, 0, 48, 0, 58, 0, 16, 0, 0, 0)
s = 83: (0, 0, 17, 0, 60, 0, 25, 0, 20, 0, 0, 0)
s = 84: (0, 0, 18, 0, 66, 0, 55, 0, 14, 0, 0, 0)
s = 85: (0, 0, 21, 0, 41, 0, 38, 0, 30, 0, 0, 0)
s = 86: (0, 0, 15, 0, 69, 0, 24, 0, 22, 0, 0, 0)
s = 87: (0, 0, 12, 0, 60, 0, 40, 0, 18, 0, 0, 0)
s = 88: (0, 0, 9, 0, 42, 0, 26, 0, 35, 0, 0, 0)
s = 89: (0, 0, 15, 0, 43, 0, 28, 0, 24, 0, 0, 0)
s = 90: (0, 0, 16, 0, 75, 0, 37, 0, 28, 0, 0, 0)
s = 91: (0, 0, 12, 0, 35, 0, 43, 0, 23, 0, 0, 0)
s = 92: (0, 0, 23, 0, 84, 0, 45, 0, 16, 0, 0, 0)
s = 93: (0, 0, 22, 0, 39, 0, 54, 0, 23, 0, 0, 0)
s = 94: (0, 0, 15, 0, 64, 0, 61, 0, 25, 0, 0, 0)
s = 95: (0, 0, 18, 0, 35, 0, 43, 0, 21, 0, 0, 0)
s = 96: (0, 0, 12, 0, 48, 0, 51, 0, 24, 0, 0, 0)
s = 97: (0, 0, 14, 0, 60, 0, 30, 0, 26, 0, 0, 0)
s = 98: (0, 0, 18, 0, 66, 0, 31, 0, 33, 0, 0, 0)
s = 99: (0, 0, 12, 0, 34, 0, 35, 0, 31, 0, 0, 0)
s = 100: (0, 0, 12, 0, 32, 0, 35, 0, 21, 0, 0, 0)
s = 101: (0, 0, 17, 0, 72, 0, 65, 0, 27, 0, 0, 0)
s = 102: (0, 0, 16, 0, 56, 0, 50, 0, 33, 0, 0, 0)
s = 103: (0, 0, 11, 0, 33, 0, 23, 0, 25, 0, 0, 0)
s = 104: (0, 0, 11, 0, 34, 0, 53, 0, 20, 0, 0, 0)
s = 105: (0, 0, 14, 0, 43, 0, 36, 0, 21, 0, 0, 0)
s = 106: (0, 0, 14, 0, 55, 0, 38, 0, 33, 0, 0, 0)
s = 107: (0, 0, 12, 0, 59, 0, 59, 0, 16, 0, 0, 0)
s = 108: (0, 0, 9, 0, 64, 0, 42, 0, 19, 0, 0, 0)
s = 109: (0, 0, 20, 0, 61, 0, 24, 0, 30, 0, 0, 0)
s = 110: (0, 0, 19, 0, 55, 0, 24, 0, 26, 0, 0, 0)
s = 111: (0, 0, 16, 0, 64, 0, 56, 0, 28, 0, 0, 0)
s = 112: (0, 0, 18, 0, 38, 0, 63, 0, 16, 0, 0, 0)
s = 113: (0, 0, 13, 0, 53, 0, 33, 0, 21, 0, 0, 0)
s = 114: (0, 0, 19, 0, 62, 0, 32, 0, 26, 0, 0, 0)
s = 115: (0, 0, 10, 0, 40, 0, 27, 0, 29, 0, 0, 0)
s = 116: (0, 0, 21, 0, 46, 0, 35, 0, 34, 0, 0, 0)
s = 117: (0, 0, 11, 0, 67, 0, 44, 0, 16, 0, 0, 0)
s = 118: (0, 0, 13, 0, 65, 0, 39, 0, 20, 0, 0, 0)
s = 119: (0, 0, 14, 0, 89, 0, 36, 0, 29, 0, 0, 0)
s = 120: (0, 0, 13, 0, 30, 0, 42, 0, 23, 0, 0, 0)
s = 121: (0, 0, 21, 0, 64, 0, 45, 0, 22, 0, 0, 0)
s = 122: (0, 0, 9, 0, 36, 0, 40, 0, 28, 0, 0, 0)
s = 123: (0, 0, 12, 0, 37, 0, 52, 0, 27, 0, 0, 0)
s = 124: (0, 0, 17, 0, 32, 0, 65, 0, 23, 0, 0, 0)
s = 125: (0, 0, 9, 0, 60, 0, 33, 0, 20, 0, 0, 0)
s = 126: (0, 0, 11, 0, 71, 0, 51, 0, 29, 0, 0, 0)
s = 127: (0, 0, 17, 0, 44, 0, 26, 0, 20, 0, 0, 0)
s = 128: (0, 0, 10, 0, 96, 0, 63, 0, 34, 0, 0, 0)
s = 129: (0, 0, 27, 0, 69, 0, 33, 0, 32, 0, 0, 0)
s = 130: (0, 0, 13, 0, 47, 0, 46, 0, 24, 0, 0, 0)
s = 131: (0, 0, 13, 0, 41, 0, 37, 0, 17, 0, 0, 0)
s = 132: (0, 0, 13, 0, 46, 0, 39, 0, 17, 0, 0, 0)
s = 133: (0, 0, 12, 0, 47, 0, 36, 0, 23, 0, 0, 0)
s = 134: (0, 0, 8, 0, 70, 0, 27, 0, 24, 0, 0, 0)
s = 135: (0, 0, 11, 0, 41, 0, 27, 0, 15, 0, 0, 0)
s = 136: (0, 0, 19, 0, 44, 0, 55, 0, 37, 0, 0, 0)
s = 137: (0, 0, 19, 0, 84, 0, 34, 0, 20, 0, 0, 0)
s = 138: (0, 0, 11, 0, 49, 0, 43, 0, 21, 0, 0, 0)
s = 139: (0, 0, 10, 0, 65, 0, 38, 0, 15, 0, 0, 0)
s = 140: (0, 0, 12, 0, 69, 0, 24, 0, 26, 0, 0, 0)
s = 141: (0, 0, 11, 0, 39, 0, 25, 0, 35, 0, 0, 0)
s = 142: (0, 0, 11, 0, 44, 0, 45, 0, 30, 0, 0, 0)
s = 143: (0, 0, 13, 0, 66, 0, 58, 0, 20, 0, 0, 0)
s = 144: (0, 0, 19, 0, 43, 0, 31, 0, 28, 0, 0, 0)
s = 145: (0, 0, 17, 0, 38, 0, 27, 0, 19, 0, 0, 0)
s = 146: (0, 0, 19, 0, 47, 0, 30, 0, 25, 0, 0, 0)
s = 147: (0, 0, 14, 0, 61, 0, 32, 0, 30, 0, 0, 0)
s = 148: (0, 0, 17, 0, 64, 0, 62, 0, 18, 0, 0, 0)
s = 149: (0, 0, 16, 0, 41, 0, 46, 0, 26, 0, 0, 0)
s = 150: (0, 0, 15, 0, 46, 0, 54, 0, 21, 0, 0, 0)
s = 151: (0, 0, 17, 0, 42, 0, 48, 0, 17, 0, 0, 0)
s = 152: (0, 0, 13, 0, 33, 0, 56, 0, 18, 0, 0, 0)
s = 153: (0, 0, 10, 0, 70, 0, 42, 0, 29, 0, 0, 0)
s = 154: (0, 0, 12, 0, 69, 0, 49, 0, 24, 0, 0, 0)
s = 155: (0, 0, 12, 0, 49, 0, 40, 0, 14, 0, 0, 0)
s = 156: (0, 0, 15, 0, 78, 0, 48, 0, 29, 0, 0, 0)
s = 157: (0, 0, 9, 0, 51, 0, 28, 0, 20, 0, 0, 0)
s = 158: (0, 0, 15, 0, 55, 0, 41, 0, 30, 0, 0, 0)
s = 159: (0, 0, 9, 0, 52, 0, 54, 0, 21, 0, 0, 0)
s = 160: (0, 0, 14, 0, 44, 0, 45, 0, 20, 0, 0, 0)
s = 161: (0, 0, 15, 0, 46, 0, 48, 0, 40, 0, 0, 0)
s = 162: (0, 0, 13, 0, 40, 0, 66, 0, 16, 0, 0, 0)
s = 163: (0, 0, 12, 0, 32, 0, 40, 0, 27, 0, 0, 0)
s = 164: (0, 0, 16, 0, 44, 0, 52, 0, 20, 0, 0, 0)
s = 165: (0, 0, 13, 0, 55, 0, 33, 0, 29, 0, 0, 0)
s = 166: (0, 0, 18, 0, 45, 0, 28, 0, 27, 0, 0, 0)
s = 167: (0, 0, 12, 0, 41, 0, 43, 0, 26, 0, 0, 0)
s = 168: (0, 0, 11, 0, 55, 0, 45, 0, 28, 0, 0, 0)
s = 169: (0, 0, 15, 0, 56, 0, 40, 0, 22, 0, 0, 0)
s = 170: (0, 0, 11, 0, 66, 0, 46, 0, 23, 0, 0, 0)
s = 171: (0, 0, 9, 0, 75, 0, 38, 0, 22, 0, 0, 0)
s = 172: (0, 0, 15, 0, 40, 0, 37, 0, 24, 0, 0, 0)
s = 173: (0, 0, 14, 0, 58, 0, 46, 0, 20, 0, 0, 0)
s = 174: (0, 0, 11, 0, 56, 0, 48, 0, 36, 0, 0, 0)
s = 175: (0, 0, 11, 0, 83, 0, 25, 0, 16, 0, 0, 0)
s = 176: (0, 0, 16, 0, 39, 0, 42, 0, 23, 0, 0, 0)
s = 177: (0, 0, 19, 0, 34, 0, 40, 0, 16, 0, 0, 0)
s = 178: (0, 0, 9, 0, 44, 0, 64, 0, 16, 0, 0, 0)
s = 179: (0, 0, 10, 0, 63, 0, 42, 0, 19, 0, 0, 0)
s = 180: (0, 0, 14, 0, 58, 0, 35, 0, 19, 0, 0, 0)
s = 181: (0, 0, 9, 0, 43, 0, 39, 0, 23, 0, 0, 0)
s = 182: (0, 0, 9, 0, 54, 0, 47, 0, 15, 0, 0, 0)
s = 183: (0, 0, 17, 0, 69, 0, 58, 0, 14, 0, 0, 0)
s = 184: (0, 0, 11, 0, 97, 0, 34, 0, 23, 0, 0, 0)
s = 185: (0, 0, 9, 0, 60, 0, 40, 0, 20, 0, 0, 0)
s = 186: (0, 0, 8, 0, 51, 0, 33, 0, 19, 0, 0, 0)
s = 187: (0, 0, 9, 0, 78, 0, 36, 0, 19, 0, 0, 0)
s = 188: (0, 0, 10, 0, 77, 0, 31, 0, 18, 0, 0, 0)
s = 189: (0, 0, 13, 0, 50, 0, 37, 0, 25, 0, 0, 0)
s = 190: (0, 0, 12, 0, 53, 0, 47, 0, 36, 0, 0, 0)
s = 191: (0, 0, 11, 0, 91, 0, 66, 0, 19, 0, 0, 0)
s = 192: (0, 0, 21, 0, 77, 0, 43, 0, 23, 0, 0, 0)
s = 193: (0, 0, 12, 0, 52, 0, 51, 0, 17, 0, 0, 0)
s = 194: (0, 0, 15, 0, 53, 0, 37, 0, 25, 0, 0, 0)
s = 195: (0, 0, 11, 0, 48, 0, 27, 0, 25, 0, 0, 0)
s = 196: (0, 0, 19, 0, 46, 0, 42, 0, 41, 0, 0, 0)
s = 197: (0, 0, 15, 0, 52, 0, 57, 0, 26, 0, 0, 0)
s = 198: (0, 0, 10, 0, 41, 0, 33, 0, 30, 0, 0, 0)
s = 199: (0, 0, 22, 0, 38, 0, 31, 0, 27, 0, 0, 0)
s = 200: (0, 0, 10, 0, 35, 0, 36, 0, 24, 0, 0, 0)
------------------------------------------------------------------------
RESOURCE k = 3
s = 1: (0, 63, 0, 66, 0, 2, 0, 22, 0, 20, 17, 0)
s = 2: (0, 31, 0, 50, 0, 2, 0, 39, 0, 28, 16, 0)
s = 3: (0, 49, 0, 36, 0, 3, 0, 44, 0, 35, 20, 0)
s = 4: (0, 53, 0, 31, 0, 2, 0, 49, 0, 29, 20, 0)
s = 5: (0, 40, 0, 41, 0, 2, 0, 30, 0, 28, 17, 0)
s = 6: (0, 51, 0, 69, 0, 3, 0, 30, 0, 33, 11, 0)
s = 7: (0, 57, 0, 62, 0, 2, 0, 38, 0, 20, 22, 0)
s = 8: (0, 42, 0, 71, 0, 2, 0, 30, 0, 26, 13, 0)
s = 9: (0, 44, 0, 77, 0, 3, 0, 37, 0, 16, 12, 0)
s = 10: (0, 35, 0, 38, 0, 4, 0, 31, 0, 24, 17, 0)
s = 11: (0, 43, 0, 73, 0, 2, 0, 22, 0, 17, 13, 0)
s = 12: (0, 26, 0, 51, 0, 2, 0, 24, 0, 35, 19, 0)
s = 13: (0, 37, 0, 41, 0, 2, 0, 42, 0, 22, 15, 0)
s = 14: (0, 27, 0, 59, 0, 2, 0, 44, 0, 22, 14, 0)
s = 15: (0, 37, 0, 75, 0, 3, 0, 33, 0, 20, 14, 0)
s = 16: (0, 33, 0, 52, 0, 3, 0, 30, 0, 26, 16, 0)
s = 17: (0, 30, 0, 69, 0, 2, 0, 47, 0, 18, 11, 0)
s = 18: (0, 28, 0, 59, 0, 3, 0, 40, 0, 27, 8, 0)
s = 19: (0, 28, 0, 51, 0, 3, 0, 20, 0, 39, 14, 0)
s = 20: (0, 37, 0, 45, 0, 3, 0, 29, 0, 46, 8, 0)
s = 21: (0, 34, 0, 71, 0, 2, 0, 24, 0, 23, 14, 0)
s = 22: (0, 34, 0, 50, 0, 3, 0, 28, 0, 24, 19, 0)
s = 23: (0, 32, 0, 92, 0, 3, 0, 23, 0, 26, 21, 0)
s = 24: (0, 57, 0, 53, 0, 3, 0, 37, 0, 15, 10, 0)
s = 25: (0, 56, 0, 42, 0, 2, 0, 30, 0, 25, 11, 0)
s = 26: (0, 33, 0, 71, 0, 2, 0, 35, 0, 18, 12, 0)
s = 27: (0, 22, 0, 45, 0, 2, 0, 36, 0, 22, 13, 0)
s = 28: (0, 31, 0, 54, 0, 2, 0, 27, 0, 31, 10, 0)
s = 29: (0, 47, 0, 62, 0, 2, 0, 41, 0, 29, 16, 0)
s = 30: (0, 34, 0, 41, 0, 3, 0, 45, 0, 16, 12, 0)
s = 31: (0, 31, 0, 48, 0, 2, 0, 31, 0, 29, 9, 0)
s = 32: (0, 34, 0, 55, 0, 2, 0, 26, 0, 41, 17, 0)
s = 33: (0, 41, 0, 50, 0, 3, 0, 37, 0, 28, 11, 0)
s = 34: (0, 46, 0, 64, 0, 2, 0, 28, 0, 23, 24, 0)
s = 35: (0, 42, 0, 57, 0, 2, 0, 36, 0, 20, 10, 0)
s = 36: (0, 24, 0, 70, 0, 2, 0, 25, 0, 24, 8, 0)
s = 37: (0, 27, 0, 44, 0, 3, 0, 29, 0, 44, 18, 0)
s = 38: (0, 56, 0, 77, 0, 2, 0, 36, 0, 24, 12, 0)
s = 39: (0, 29, 0, 56, 0, 2, 0, 37, 0, 27, 12, 0)
s = 40: (0, 48, 0, 75, 0, 2, 0, 24, 0, 16, 17, 0)
s = 41: (0, 36, 0, 54, 0, 3, 0, 44, 0, 29, 9, 0)
s = 42: (0, 29, 0, 41, 0, 3, 0, 31, 0, 21, 11, 0)
s = 43: (0, 28, 0, 68, 0, 2, 0, 36, 0, 17, 16, 0)
s = 44: (0, 28, 0, 43, 0, 2, 0, 26, 0, 30, 16, 0)
s = 45: (0, 48, 0, 60, 0, 2, 0, 36, 0, 16, 14, 0)
s = 46: (0, 24, 0, 45, 0, 2, 0, 25, 0, 26, 12, 0)
s = 47: (0, 66, 0, 80, 0, 2, 0, 19, 0, 24, 19, 0)
s = 48: (0, 25, 0, 56, 0, 3, 0, 26, 0, 18, 12, 0)
s = 49: (0, 26, 0, 54, 0, 4, 0, 28, 0, 26, 26, 0)
s = 50: (0, 33, 0, 55, 0, 3, 0, 29, 0, 34, 12, 0)
s = 51: (0, 27, 0, 43, 0, 2, 0, 20, 0, 31, 13, 0)
s = 52: (0, 25, 0, 87, 0, 2, 0, 26, 0, 25, 22, 0)
s = 53: (0, 33, 0, 46, 0, 3, 0, 33, 0, 41, 8, 0)
s = 54: (0, 26, 0, 53, 0, 2, 0, 36, 0, 24, 10, 0)
s = 55: (0, 33, 0, 41, 0, 2, 0, 24, 0, 20, 13, 0)
s = 56: (0, 29, 0, 42, 0, 2, 0, 22, 0, 26, 11, 0)
s = 57: (0, 40, 0, 69, 0, 2, 0, 20, 0, 30, 10, 0)
s = 58: (0, 59, 0, 56, 0, 2, 0, 24, 0, 23, 11, 0)
s = 59: (0, 40, 0, 51, 0, 3, 0, 32, 0, 33, 14, 0)
s = 60: (0, 35, 0, 80, 0, 2, 0, 34, 0, 23, 17, 0)
s = 61: (0, 26, 0, 34, 0, 2, 0, 30, 0, 27, 20, 0)
s = 62: (0, 34, 0, 49, 0, 2, 0, 21, 0, 19, 16, 0)
s = 63: (0, 46, 0, 37, 0, 2, 0, 23, 0, 23, 11, 0)
s = 64: (0, 31, 0, 45, 0, 2, 0, 30, 0, 24, 11, 0)
s = 65: (0, 37, 0, 57, 0, 3, 0, 33, 0, 28, 14, 0)
s = 66: (0, 34, 0, 80, 0, 2, 0, 33, 0, 24, 10, 0)
s = 67: (0, 30, 0, 84, 0, 2, 0, 36, 0, 31, 12, 0)
s = 68: (0, 42, 0, 62, 0, 3, 0, 25, 0, 18, 14, 0)
s = 69: (0, 32, 0, 47, 0, 3, 0, 27, 0, 16, 20, 0)
s = 70: (0, 30, 0, 40, 0, 2, 0, 21, 0, 22, 12, 0)
s = 71: (0, 22, 0, 49, 0, 2, 0, 44, 0, 32, 13, 0)
s = 72: (0, 23, 0, 31, 0, 2, 0, 34, 0, 24, 9, 0)
s = 73: (0, 27, 0, 47, 0, 3, 0, 38, 0, 16, 17, 0)
s = 74: (0, 38, 0, 62, 0, 2, 0, 43, 0, 24, 22, 0)
s = 75: (0, 32, 0, 87, 0, 2, 0, 42, 0, 14, 22, 0)
s = 76: (0, 27, 0, 48, 0, 3, 0, 40, 0, 28, 9, 0)
s = 77: (0, 32, 0, 36, 0, 3, 0, 36, 0, 28, 19, 0)
s = 78: (0, 36, 0, 71, 0, 3, 0, 32, 0, 21, 12, 0)
s = 79: (0, 36, 0, 52, 0, 3, 0, 25, 0, 38, 16, 0)
s = 80: (0, 53, 0, 75, 0, 2, 0, 40, 0, 21, 19, 0)
s = 81: (0, 46, 0, 70, 0, 2, 0, 57, 0, 32, 16, 0)
s = 82: (0, 51, 0, 49, 0, 2, 0, 25, 0, 24, 9, 0)
s = 83: (0, 41, 0, 53, 0, 3, 0, 36, 0, 25, 8, 0)
s = 84: (0, 61, 0, 49, 0, 2, 0, 18, 0, 14, 15, 0)
s = 85: (0, 36, 0, 33, 0, 3, 0, 22, 0, 29, 11, 0)
s = 86: (0, 44, 0, 37, 0, 4, 0, 29, 0, 18, 13, 0)
s = 87: (0, 59, 0, 71, 0, 3, 0, 37, 0, 16, 16, 0)
s = 88: (0, 34, 0, 62, 0, 3, 0, 26, 0, 28, 18, 0)
s = 89: (0, 37, 0, 43, 0, 3, 0, 28, 0, 24, 16, 0)
s = 90: (0, 25, 0, 41, 0, 2, 0, 30, 0, 24, 22, 0)
s = 91: (0, 33, 0, 54, 0, 3, 0, 34, 0, 16, 12, 0)
s = 92: (0, 63, 0, 50, 0, 2, 0, 23, 0, 18, 18, 0)
s = 93: (0, 26, 0, 72, 0, 2, 0, 23, 0, 20, 13, 0)
s = 94: (0, 26, 0, 52, 0, 4, 0, 29, 0, 32, 13, 0)
s = 95: (0, 50, 0, 39, 0, 2, 0, 36, 0, 21, 10, 0)
s = 96: (0, 33, 0, 69, 0, 2, 0, 40, 0, 13, 8, 0)
s = 97: (0, 25, 0, 66, 0, 3, 0, 18, 0, 20, 8, 0)
s = 98: (0, 44, 0, 72, 0, 2, 0, 36, 0, 24, 10, 0)
s = 99: (0, 34, 0, 48, 0, 3, 0, 35, 0, 23, 14, 0)
s = 100: (0, 30, 0, 55, 0, 2, 0, 31, 0, 25, 14, 0)
s = 101: (0, 42, 0, 48, 0, 2, 0, 55, 0, 29, 21, 0)
s = 102: (0, 55, 0, 50, 0, 3, 0, 35, 0, 24, 13, 0)
s = 103: (0, 48, 0, 47, 0, 2, 0, 57, 0, 37, 18, 0)
s = 104: (0, 48, 0, 62, 0, 2, 0, 39, 0, 16, 21, 0)
s = 105: (0, 37, 0, 63, 0, 2, 0, 47, 0, 18, 13, 0)
s = 106: (0, 36, 0, 37, 0, 4, 0, 18, 0, 26, 19, 0)
s = 107: (0, 25, 0, 44, 0, 2, 0, 51, 0, 25, 17, 0)
s = 108: (0, 37, 0, 59, 0, 2, 0, 26, 0, 24, 19, 0)
s = 109: (0, 44, 0, 37, 0, 4, 0, 44, 0, 21, 13, 0)
s = 110: (0, 42, 0, 70, 0, 2, 0, 32, 0, 28, 16, 0)
s = 111: (0, 30, 0, 72, 0, 3, 0, 26, 0, 31, 12, 0)
s = 112: (0, 26, 0, 61, 0, 2, 0, 28, 0, 20, 14, 0)
s = 113: (0, 40, 0, 52, 0, 3, 0, 25, 0, 33, 10, 0)
s = 114: (0, 21, 0, 59, 0, 2, 0, 62, 0, 24, 8, 0)
s = 115: (0, 41, 0, 38, 0, 4, 0, 21, 0, 19, 12, 0)
s = 116: (0, 48, 0, 75, 0, 3, 0, 38, 0, 24, 25, 0)
s = 117: (0, 40, 0, 42, 0, 3, 0, 32, 0, 26, 15, 0)
s = 118: (0, 34, 0, 40, 0, 2, 0, 35, 0, 25, 10, 0)
s = 119: (0, 32, 0, 39, 0, 3, 0, 33, 0, 33, 13, 0)
s = 120: (0, 25, 0, 81, 0, 3, 0, 35, 0, 26, 16, 0)
s = 121: (0, 40, 0, 57, 0, 2, 0, 19, 0, 16, 24, 0)
s = 122: (0, 23, 0, 51, 0, 3, 0, 37, 0, 32, 9, 0)
s = 123: (0, 45, 0, 51, 0, 2, 0, 32, 0, 16, 10, 0)
s = 124: (0, 59, 0, 53, 0, 3, 0, 38, 0, 29, 15, 0)
s = 125: (0, 51, 0, 43, 0, 2, 0, 25, 0, 32, 13, 0)
s = 126: (0, 39, 0, 67, 0, 3, 0, 33, 0, 22, 13, 0)
s = 127: (0, 64, 0, 57, 0, 3, 0, 26, 0, 39, 13, 0)
s = 128: (0, 41, 0, 49, 0, 2, 0, 33, 0, 24, 15, 0)
s = 129: (0, 30, 0, 39, 0, 3, 0, 34, 0, 23, 23, 0)
s = 130: (0, 21, 0, 82, 0, 2, 0, 25, 0, 21, 10, 0)
s = 131: (0, 50, 0, 34, 0, 2, 0, 27, 0, 19, 10, 0)
s = 132: (0, 37, 0, 54, 0, 2, 0, 46, 0, 19, 15, 0)
s = 133: (0, 44, 0, 62, 0, 3, 0, 51, 0, 16, 16, 0)
s = 134: (0, 27, 0, 63, 0, 3, 0, 38, 0, 21, 23, 0)
s = 135: (0, 31, 0, 74, 0, 2, 0, 42, 0, 19, 16, 0)
s = 136: (0, 32, 0, 38, 0, 3, 0, 23, 0, 33, 14, 0)
s = 137: (0, 27, 0, 63, 0, 2, 0, 32, 0, 19, 20, 0)
s = 138: (0, 33, 0, 48, 0, 3, 0, 38, 0, 18, 17, 0)
s = 139: (0, 33, 0, 78, 0, 2, 0, 40, 0, 37, 10, 0)
s = 140: (0, 24, 0, 59, 0, 2, 0, 20, 0, 29, 9, 0)
s = 141: (0, 45, 0, 51, 0, 3, 0, 29, 0, 30, 13, 0)
s = 142: (0, 26, 0, 46, 0, 3, 0, 41, 0, 26, 12, 0)
s = 143: (0, 39, 0, 54, 0, 2, 0, 31, 0, 25, 10, 0)
s = 144: (0, 47, 0, 73, 0, 2, 0, 21, 0, 24, 16, 0)
s = 145: (0, 59, 0, 51, 0, 2, 0, 31, 0, 34, 14, 0)
s = 146: (0, 36, 0, 35, 0, 2, 0, 25, 0, 16, 17, 0)
s = 147: (0, 20, 0, 40, 0, 3, 0, 40, 0, 16, 19, 0)
s = 148: (0, 33, 0, 43, 0, 3, 0, 18, 0, 27, 16, 0)
s = 149: (0, 43, 0, 43, 0, 2, 0, 37, 0, 32, 15, 0)
s = 150: (0, 23, 0, 57, 0, 3, 0, 23, 0, 30, 9, 0)
s = 151: (0, 34, 0, 50, 0, 2, 0, 25, 0, 18, 13, 0)
s = 152: (0, 39, 0, 42, 0, 2, 0, 21, 0, 21, 12, 0)
s = 153: (0, 46, 0, 63, 0, 2, 0, 23, 0, 25, 12, 0)
s = 154: (0, 30, 0, 61, 0, 4, 0, 39, 0, 18, 15, 0)
s = 155: (0, 35, 0, 66, 0, 3, 0, 53, 0, 31, 19, 0)
s = 156: (0, 26, 0, 55, 0, 3, 0, 42, 0, 31, 15, 0)
s = 157: (0, 26, 0, 57, 0, 2, 0, 39, 0, 25, 9, 0)
s = 158: (0, 34, 0, 59, 0, 2, 0, 33, 0, 16, 16, 0)
s = 159: (0, 35, 0, 75, 0, 2, 0, 44, 0, 14, 17, 0)
s = 160: (0, 32, 0, 57, 0, 2, 0, 29, 0, 20, 8, 0)
s = 161: (0, 29, 0, 41, 0, 2, 0, 21, 0, 21, 10, 0)
s = 162: (0, 26, 0, 42, 0, 3, 0, 37, 0, 25, 13, 0)
s = 163: (0, 33, 0, 58, 0, 2, 0, 30, 0, 16, 9, 0)
s = 164: (0, 33, 0, 70, 0, 2, 0, 20, 0, 26, 14, 0)
s = 165: (0, 30, 0, 57, 0, 2, 0, 26, 0, 23, 15, 0)
s = 166: (0, 25, 0, 41, 0, 2, 0, 38, 0, 24, 19, 0)
s = 167: (0, 28, 0, 59, 0, 3, 0, 34, 0, 27, 18, 0)
s = 168: (0, 42, 0, 40, 0, 2, 0, 32, 0, 27, 15, 0)
s = 169: (0, 34, 0, 64, 0, 3, 0, 23, 0, 21, 11, 0)
s = 170: (0, 35, 0, 55, 0, 2, 0, 53, 0, 28, 17, 0)
s = 171: (0, 43, 0, 50, 0, 3, 0, 31, 0, 30, 10, 0)
s = 172: (0, 44, 0, 47, 0, 4, 0, 27, 0, 23, 18, 0)
s = 173: (0, 42, 0, 42, 0, 4, 0, 23, 0, 20, 16, 0)
s = 174: (0, 41, 0, 46, 0, 2, 0, 34, 0, 23, 16, 0)
s = 175: (0, 33, 0, 80, 0, 3, 0, 31, 0, 26, 12, 0)
s = 176: (0, 43, 0, 44, 0, 3, 0, 40, 0, 23, 10, 0)
s = 177: (0, 40, 0, 37, 0, 2, 0, 22, 0, 16, 9, 0)
s = 178: (0, 34, 0, 50, 0, 3, 0, 48, 0, 20, 12, 0)
s = 179: (0, 32, 0, 53, 0, 3, 0, 35, 0, 25, 15, 0)
s = 180: (0, 31, 0, 62, 0, 3, 0, 22, 0, 41, 11, 0)
s = 181: (0, 33, 0, 79, 0, 3, 0, 20, 0, 24, 14, 0)
s = 182: (0, 39, 0, 45, 0, 3, 0, 25, 0, 31, 13, 0)
s = 183: (0, 26, 0, 69, 0, 2, 0, 38, 0, 15, 9, 0)
s = 184: (0, 52, 0, 48, 0, 4, 0, 25, 0, 29, 16, 0)
s = 185: (0, 34, 0, 57, 0, 2, 0, 28, 0, 17, 16, 0)
s = 186: (0, 42, 0, 38, 0, 2, 0, 38, 0, 30, 17, 0)
s = 187: (0, 34, 0, 44, 0, 3, 0, 38, 0, 33, 14, 0)
s = 188: (0, 22, 0, 45, 0, 3, 0, 21, 0, 37, 21, 0)
s = 189: (0, 34, 0, 39, 0, 2, 0, 46, 0, 21, 14, 0)
s = 190: (0, 56, 0, 69, 0, 3, 0, 25, 0, 23, 10, 0)
s = 191: (0, 48, 0, 60, 0, 3, 0, 40, 0, 20, 16, 0)
s = 192: (0, 38, 0, 59, 0, 2, 0, 53, 0, 31, 13, 0)
s = 193: (0, 39, 0, 41, 0, 3, 0, 23, 0, 40, 18, 0)
s = 194: (0, 42, 0, 55, 0, 2, 0, 57, 0, 14, 17, 0)
s = 195: (0, 31, 0, 54, 0, 2, 0, 36, 0, 35, 9, 0)
s = 196: (0, 50, 0, 68, 0, 2, 0, 38, 0, 32, 17, 0)
s = 197: (0, 31, 0, 83, 0, 2, 0, 21, 0, 25, 20, 0)
s = 198: (0, 30, 0, 45, 0, 2, 0, 35, 0, 27, 19, 0)
s = 199: (0, 22, 0, 69, 0, 3, 0, 28, 0, 21, 16, 0)
s = 200: (0, 56, 0, 46, 0, 2, 0, 34, 0, 41, 20, 0)
************************************************************************
ES/LS-VALUES:
jobnr.   ES(i)    LS(i)
------------------------------------------------------------------------
  0        0        0
  1        0       38
  2        0       51
  3        0       59
  4       16       55
  5        4       61
  6       16       56
  7       22       63
  8       16       73
  9       29       71
 10       26       66
 11       39       79
************************************************************************
BIG-M-VALUES:
M1 = 75, M2 = 239
************************************************************************
